JulietBench/Juliet_Based_Patch_Bench/linux/CWE-189-Numeric-Errors/CVE_2013_6378_a497e47d4aec37aaf8f13509f3ef3d1f6a717d88/Resultlbs_debugfs_write_Snippet_patch2NEQ.smt2
; benchmark generated from python API
(set-info :status unknown)
(declare-fun R () (_ BitVec 32))
(declare-fun rdi () (_ BitVec 64))
(assert
 (let (($x19 (and (distinct (_ bv2 32) R) true)))
 (let ((?x15 ((_ extract 31 0) rdi)))
 (let (($x20 (and (distinct R ?x15) true)))
 (let (($x18 (and $x20 $x19)))
 (let (($x7 (= (_ bv2 32) R)))
 (let (($x13 (= R ?x15)))
 (let (($x21 (and $x13 $x7)))
 (let (($x17 (or $x21 $x18)))
 (not $x17))))))))))
(check-sat)
